job_count = 10 ;
duration = [|14, 18, 8|18, 10, 19|17, 21, 4|23, 23, 19|13, 5, 2|17, 9, 4|2, 5, 4|28, 17, 2|25, 13, 10|26, 11, 3|] ;
machine_count = 3 ;
cost = [|34, 34, 33|13, 35, 54|29, 44, 33|14, 48, 47|31, 28, 35|20, 42, 39|20, 42, 32|15, 40, 47|19, 34, 35|31, 33, 51|] ;
deadline = [11, 26, 31, 11, 8, 24, 18, 26, 25, 19] ;
release = [0, 0, 0, 0, 0, 0, 0, 0, 0, 0] ;
resource = [|3, 3, 3|5, 5, 5|4, 4, 4|1, 1, 1|4, 4, 4|1, 1, 1|8, 8, 8|4, 4, 4|7, 7, 7|2, 2, 2|] ;
capacities = [10, 10, 10] ;
